========================================================== 
File name: C:\DEGR\assets\definitions\MSRCPSP_Gen\100_40_512_5_C.def
Creation date: Wed May 03 10:44:02 CEST 2023
Website: http://imopse.ii.pwr.edu.pl/ 
Reference: 
Myszkowski P. B., Skowronski M. E., Olech L., Oslizlo K., 
Hybrid Ant Colony Optimization in solving Multi-Skill Resource-Constrained Project Scheduling Problem, 
Soft Computing, DOI: DOI 10.1007/s00500-014-1455-x 
========================================================== 
General characteristics: 
Tasks: 100
Resources: 40
Precedence relations: 478
Number of skill types: 5
========================================================== 
ResourceID 	 Salary 	 Skills 
1	 	 	65.2	 	 Q3: 1 	  Q4: 3 	 
2	 	 	57.6	 	 Q0: 0 	 
3	 	 	72.0	 	 Q3: 0 	  Q2: 1 	  Q0: 3 	  Q1: 2 	 
4	 	 	51.3	 	 Q0: 3 	 
5	 	 	81.3	 	 Q0: 3 	  Q4: 0 	  Q1: 3 	 
6	 	 	55.2	 	 Q2: 1 	 
7	 	 	95.3	 	 Q3: 3 	  Q1: 3 	  Q2: 3 	 
8	 	 	42.9	 	 Q1: 2 	  Q4: 0 	  Q2: 1 	  Q3: 0 	 
9	 	 	12.0	 	 Q4: 3 	 
10	 	 	15.6	 	 Q2: 1 	  Q1: 1 	 
11	 	 	45.5	 	 Q3: 2 	  Q4: 0 	  Q0: 0 	 
12	 	 	98.8	 	 Q3: 0 	  Q2: 1 	  Q4: 0 	 
13	 	 	56.9	 	 Q0: 0 	  Q1: 2 	  Q3: 0 	 
14	 	 	84.7	 	 Q4: 3 	  Q2: 0 	  Q1: 2 	  Q3: 0 	 
15	 	 	82.7	 	 Q2: 3 	  Q0: 1 	 
16	 	 	24.7	 	 Q3: 3 	  Q0: 2 	  Q1: 1 	 
17	 	 	89.6	 	 Q3: 0 	 
18	 	 	49.6	 	 Q4: 2 	 
19	 	 	55.0	 	 Q4: 3 	  Q1: 1 	 
20	 	 	76.8	 	 Q4: 2 	  Q2: 0 	  Q1: 1 	 
21	 	 	95.8	 	 Q3: 3 	  Q2: 0 	  Q1: 1 	  Q0: 0 	 
22	 	 	13.0	 	 Q1: 2 	 
23	 	 	93.0	 	 Q0: 3 	  Q4: 0 	  Q3: 3 	 
24	 	 	35.3	 	 Q0: 0 	 
25	 	 	94.7	 	 Q3: 2 	  Q1: 3 	 
26	 	 	89.3	 	 Q0: 1 	  Q1: 0 	 
27	 	 	55.7	 	 Q1: 2 	  Q3: 2 	 
28	 	 	64.4	 	 Q4: 0 	  Q3: 2 	 
29	 	 	54.4	 	 Q1: 0 	 
30	 	 	56.4	 	 Q2: 3 	 
31	 	 	48.9	 	 Q1: 0 	 
32	 	 	35.0	 	 Q3: 2 	  Q4: 0 	 
33	 	 	18.6	 	 Q3: 2 	  Q4: 0 	  Q0: 3 	  Q2: 1 	 
34	 	 	55.4	 	 Q4: 3 	  Q2: 1 	 
35	 	 	35.3	 	 Q4: 2 	  Q0: 3 	  Q1: 2 	  Q3: 1 	 
36	 	 	77.5	 	 Q0: 0 	  Q1: 1 	  Q2: 0 	 
37	 	 	42.9	 	 Q3: 3 	  Q1: 0 	 
38	 	 	66.6	 	 Q2: 3 	  Q0: 3 	  Q4: 2 	  Q1: 0 	 
39	 	 	84.1	 	 Q2: 2 	  Q4: 1 	 
40	 	 	98.6	 	 Q2: 2 	  Q3: 1 	  Q1: 3 	  Q4: 0 	 
========================================================== 
TaskID 	 Duration 	 Skill 	 Predecessor IDs 
1	35	Q3:	0
2	34	Q0:	2
3	16	Q0:	3
4	10	Q1:	2
5	26	Q3:	1
6	25	Q3:	3	5
7	22	Q4:	3	1
8	27	Q1:	1
9	39	Q0:	2	8
10	16	Q4:	0	4
11	9	Q2:	1	10
12	9	Q0:	1	7
13	20	Q4:	1
14	34	Q2:	3	6
15	12	Q2:	0	13	11
16	25	Q3:	0	15	2	9	6
17	21	Q1:	0	3
18	15	Q4:	1	15	1	3	14
19	12	Q3:	0	1	7
20	30	Q1:	0	19	10	18
21	30	Q1:	1
22	17	Q3:	3	15
23	27	Q2:	1	16	2	7	3
24	24	Q4:	3	8
25	13	Q0:	2	7	2
26	12	Q0:	0	11	24
27	34	Q0:	2	24	23	12	17	15
28	28	Q4:	2	7	21	22
29	21	Q2:	1	26	14
30	13	Q3:	1	1	18	20
31	32	Q4:	2	21	23
32	15	Q0:	2
33	19	Q4:	3	7	23	3	26	17
34	24	Q1:	1	4	29	24
35	16	Q1:	2	32	14	20	8	34
36	18	Q1:	1	30	17
37	36	Q1:	2	5	3	10	30	35
38	15	Q4:	0	8	32	14	24
39	29	Q0:	3	38	13	20	14	36	4	9	8	10
40	26	Q0:	2	29	3	23	14	12
41	12	Q4:	2	40	20	17	9	6
42	16	Q1:	1	4	41
43	15	Q2:	0	15	41	2	12
44	28	Q4:	3	16	34	19	39
45	35	Q3:	3	13	14	32	24	11
46	32	Q0:	2	30	37	40
47	35	Q2:	1	45	20	32	14
48	18	Q1:	1	13	14	34	32	5
49	19	Q1:	3	18	26	27	16	46	38
50	26	Q2:	3	32
51	20	Q4:	1	29	4	5	31	11	39
52	15	Q4:	0	3	43	38	10
53	12	Q0:	1	37	42	1	18	50	5
54	32	Q3:	2	25	11	3	46
55	10	Q2:	0	34
56	28	Q4:	0	43	30	13
57	34	Q3:	0	16	29
58	40	Q4:	2	54	24	57
59	26	Q1:	2	13
60	17	Q2:	0	6	7	54
61	35	Q1:	2	13	29	51	50	20	53	41	24	52
62	35	Q1:	1	9	14	21	31	23	11
63	36	Q4:	0	46	15
64	14	Q4:	1	59	7	33	37	56	22	36
65	28	Q1:	3	58	16	22	34	23	28
66	13	Q0:	2	61	49	29	58	64	38	56	55	7
67	40	Q0:	1	60	59	45	30
68	38	Q3:	2	63	8	18	10	65	43	53	22	47	48	17	57
69	33	Q1:	2	68	22	67	64	63	29	9	49	55	32	2
70	14	Q2:	1	1	48	2	30	32
71	9	Q0:	3	23	69	26	24	21	19	14	43
72	9	Q4:	2	9	14	43	67	69
73	21	Q2:	2	21	22	32	6	42	33
74	38	Q3:	3	51	11	65	59	4	2	26	15	67	36
75	10	Q3:	3	34	28	59	50	41	4	31
76	40	Q3:	0	30	56	6	43
77	23	Q0:	3	64	46	33	54	22	76	37	72
78	12	Q0:	3	43	76	50	53	74	13	24
79	36	Q0:	2	6	48	4	14	57	58	15	18	49	47
80	36	Q4:	2	47	16	39	8	67	68	70	27	42
81	36	Q0:	0	60	70	7	15	78	46	23	65	58	2	74
82	27	Q3:	2	80	38	30	56	14	60	3	72	28	34	68
83	27	Q0:	3	2	20	75	46	19	17	54
84	15	Q0:	2	6	80	38	41	32	46	53
85	22	Q0:	3	81	54	1	77	83	74	82	38	33	16
86	39	Q1:	0	47	11	15	58	16	1
87	37	Q4:	1	84	8	19	75	73	61
88	28	Q0:	1	75	9	36	37	85	16
89	15	Q3:	1	1	36	21	7	39	55	43
90	25	Q0:	0	73	13	43	87	27	9	42
91	16	Q4:	3	27	52	58	75	2	65	90	24	37	11	63	35	50	25	29
92	21	Q1:	0	42	2	58	60	67	11
93	17	Q1:	2	70	41	17	16	12	27	28
94	17	Q2:	0	74	8	7	75	91	81	10	55	51	63	59	84
95	16	Q1:	3	17	88	3	6	60	43	50	84
96	15	Q3:	3	57	82	69	40	60	53
97	30	Q2:	2	51	14	76	86	63
98	34	Q3:	1	57	51	92	49	35	96	46	64	5	1	28	91	60
99	28	Q0:	0	53	55	7	44	22	62	33	23	83
100	17	Q2:	3	97	12	15	99	24	35	44	94	70	58	21	91	72	1	84	49
========================================================== 